NAME : XML100_3134_12
DIMENSION : 101
NB_CLUSTERS : 31
CLUSTERING_ALG : KMeans
CLUSTERING_PARAMS : k(30)
CLUSTERS
1 0
2 4 23 55
3 45 88
4 14 48 56 77
5 8 11 60 66
6 29 51 70 84
7 41 57 65 75 79
8 24 58 95
9 16 85
10 27 39 42 71
11 13 52 67 81 83
12 10 31 54 87 94
13 26 37
14 50 61
15 40 53 78 80 90
16 12 62 73 76 91
17 35 93
18 3 7 9 17 18 28 92
19 2 86
20 22 49 63 69
21 44 59 64 72
22 25 38 68
23 5 21
24 15 97 98
25 19 43 46 74 100
26 33 36
27 1 30 32
28 96 99
29 47 82
30 34 89
31 6 20
EOF